p wcnf 165 330 331 
1 118 -56 0 
1 -26 -70 0 
1 86 -87 0 
1 -60 -160 0 
1 -116 -157 0 
1 146 139 0 
1 -89 59 0 
1 -68 -159 0 
1 125 -123 0 
1 -149 165 0 
1 123 -91 0 
1 -77 86 0 
1 114 -143 0 
1 -53 -98 0 
1 14 125 0 
1 99 13 0 
1 -137 -141 0 
1 138 1 0 
1 76 23 0 
1 74 76 0 
1 80 -134 0 
1 103 -77 0 
1 -74 108 0 
1 -14 132 0 
1 -109 157 0 
1 -44 -12 0 
1 106 49 0 
1 19 -139 0 
1 59 -30 0 
1 160 113 0 
1 157 -23 0 
1 -54 -79 0 
1 32 -43 0 
1 51 105 0 
1 78 5 0 
1 -125 2 0 
1 3 119 0 
1 131 98 0 
1 -11 -75 0 
1 -65 93 0 
1 141 30 0 
1 106 35 0 
1 -107 108 0 
1 -163 -7 0 
1 -91 110 0 
1 -49 97 0 
1 13 119 0 
1 4 132 0 
1 64 -51 0 
1 -51 86 0 
1 -124 -80 0 
1 -48 -100 0 
1 -138 -118 0 
1 -55 -122 0 
1 -24 -20 0 
1 101 -90 0 
1 -76 151 0 
1 -39 -145 0 
1 -54 152 0 
1 -29 13 0 
1 -127 120 0 
1 -132 96 0 
1 -1 -135 0 
1 47 -94 0 
1 66 -133 0 
1 32 -123 0 
1 -29 -14 0 
1 -163 157 0 
1 95 7 0 
1 96 -22 0 
1 18 13 0 
1 -113 117 0 
1 -83 -75 0 
1 111 -36 0 
1 -39 -73 0 
1 109 99 0 
1 -101 30 0 
1 -39 -84 0 
1 -95 -69 0 
1 33 -92 0 
1 61 -117 0 
1 85 87 0 
1 -97 48 0 
1 -112 61 0 
1 65 29 0 
1 -161 -21 0 
1 -87 126 0 
1 46 -69 0 
1 -78 139 0 
1 -78 150 0 
1 1 -129 0 
1 148 135 0 
1 -53 -65 0 
1 -140 12 0 
1 113 2 0 
1 81 39 0 
1 -150 128 0 
1 -92 16 0 
1 149 70 0 
1 -42 109 0 
1 7 -113 0 
1 120 -112 0 
1 45 125 0 
1 -160 -112 0 
1 25 -153 0 
1 100 -22 0 
1 -27 68 0 
1 -123 -157 0 
1 160 -98 0 
1 131 -3 0 
1 -7 19 0 
1 -74 111 0 
1 -89 72 0 
1 77 -135 0 
1 -46 153 0 
1 -28 -133 0 
1 -111 -97 0 
1 92 9 0 
1 -53 -141 0 
1 83 -60 0 
1 106 -109 0 
1 97 3 0 
1 107 -90 0 
1 -94 70 0 
1 116 102 0 
1 -43 -107 0 
1 -63 144 0 
1 32 -80 0 
1 25 41 0 
1 -54 135 0 
1 11 -65 0 
1 62 149 0 
1 -114 147 0 
1 8 -48 0 
1 -122 -10 0 
1 -159 138 0 
1 -8 -35 0 
1 -43 -117 0 
1 108 141 0 
1 -64 -2 0 
1 85 -51 0 
1 -110 140 0 
1 -148 14 0 
1 -154 -75 0 
1 -4 -85 0 
1 63 -102 0 
1 -33 -90 0 
1 113 83 0 
1 123 -8 0 
1 104 133 0 
1 114 45 0 
1 76 -23 0 
1 103 92 0 
1 52 -63 0 
1 -65 43 0 
1 -42 -45 0 
1 108 -7 0 
1 80 120 0 
1 -161 -93 0 
1 55 116 0 
1 160 -21 0 
1 15 133 0 
1 164 -141 0 
1 145 39 0 
1 -145 94 0 
1 -153 -83 0 
1 -39 -53 0 
1 33 29 0 
1 1 -148 0 
1 -107 -75 0 
1 53 -148 0 
1 136 -59 0 
1 -150 83 0 
1 -144 -74 0 
1 148 129 0 
1 -72 84 0 
1 77 -44 0 
1 19 52 0 
1 -107 -94 0 
1 131 119 0 
1 -39 59 0 
1 87 -30 0 
1 -8 -127 0 
1 -20 88 0 
1 138 -13 0 
1 17 -92 0 
1 84 140 0 
1 81 -80 0 
1 150 -24 0 
1 91 -40 0 
1 -90 -50 0 
1 97 -147 0 
1 -64 -83 0 
1 -129 162 0 
1 30 26 0 
1 -135 -123 0 
1 -124 -135 0 
1 -146 165 0 
1 123 -21 0 
1 131 -122 0 
1 102 156 0 
1 -150 -76 0 
1 -19 22 0 
1 42 -35 0 
1 161 91 0 
1 -23 8 0 
1 26 -145 0 
1 -108 -140 0 
1 -138 143 0 
1 18 -26 0 
1 -98 -64 0 
1 66 -85 0 
1 102 118 0 
1 38 151 0 
1 128 -144 0 
1 -134 -14 0 
1 61 155 0 
1 -72 -155 0 
1 66 149 0 
1 8 81 0 
1 -35 -19 0 
1 -156 63 0 
1 -25 -82 0 
1 25 106 0 
1 41 -136 0 
1 140 -112 0 
1 135 -58 0 
1 63 -44 0 
1 26 -107 0 
1 -129 -131 0 
1 -127 112 0 
1 64 -71 0 
1 -86 -118 0 
1 160 122 0 
1 -3 79 0 
1 -144 132 0 
1 -80 -128 0 
1 -138 -158 0 
1 105 -112 0 
1 36 -112 0 
1 -113 -141 0 
1 -104 133 0 
1 -156 72 0 
1 46 59 0 
1 161 -35 0 
1 -29 -14 0 
1 -58 -6 0 
1 31 -142 0 
1 119 52 0 
1 -62 57 0 
1 -156 -57 0 
1 106 -66 0 
1 29 60 0 
1 -100 55 0 
1 -127 -156 0 
1 -147 4 0 
1 41 27 0 
1 154 -11 0 
1 42 119 0 
1 37 33 0 
1 -131 52 0 
1 165 54 0 
1 74 37 0 
1 13 84 0 
1 -55 -64 0 
1 78 128 0 
1 -129 -91 0 
1 58 -85 0 
1 101 159 0 
1 11 164 0 
1 68 -7 0 
1 56 -160 0 
1 -108 -1 0 
1 19 88 0 
1 -13 -133 0 
1 75 -28 0 
1 -7 -55 0 
1 75 -111 0 
1 -42 -37 0 
1 28 47 0 
1 -128 150 0 
1 28 64 0 
1 -109 -151 0 
1 124 -118 0 
1 126 58 0 
1 -39 60 0 
1 -134 4 0 
1 65 -78 0 
1 -45 -8 0 
1 139 6 0 
1 33 105 0 
1 145 -151 0 
1 48 31 0 
1 -165 54 0 
1 -146 -46 0 
1 92 35 0 
1 -73 35 0 
1 70 -149 0 
1 13 -160 0 
1 150 13 0 
1 -108 -85 0 
1 22 66 0 
1 10 -6 0 
1 -139 -3 0 
1 -15 -145 0 
1 -107 5 0 
1 -101 116 0 
1 75 46 0 
1 -70 -115 0 
1 -77 44 0 
1 -140 -161 0 
1 132 -151 0 
1 75 152 0 
1 -101 -73 0 
1 49 -26 0 
1 129 75 0 
1 114 155 0 
1 -139 110 0 
1 2 143 0 
1 40 -18 0 
1 -149 89 0 
1 -96 152 0 
1 101 106 0 
1 -62 128 0 
1 -38 104 0 
1 -150 18 0 
1 4 -1 0 
1 -64 139 0 
1 -162 -159 0 
1 59 -104 0 
